Academic license - for non-commercial use only
Gurobi Optimizer version 9.0.3 build v9.0.3rc0 (mac64)
Optimize a model with 383414 rows, 360720 columns and 2101770 nonzeros
Model fingerprint: 0x17c5440d
Variable types: 0 continuous, 360720 integer (360720 binary)
Coefficient statistics:
  Matrix range     [1e+00, 1e+00]
  Objective range  [1e+01, 1e+05]
  Bounds range     [1e+00, 1e+00]
  RHS range        [1e+00, 1e+03]
Presolve removed 10030 rows and 30 columns (presolve time = 5s) ...
Presolve added 0 rows and 9970 columns
Presolve removed 30 rows and 0 columns
Presolve time: 6.76s
Presolved: 383384 rows, 370690 columns, 1531710 nonzeros
Variable types: 0 continuous, 370690 integer (370690 binary)
Found heuristic solution: objective 1021783.0000

Concurrent LP optimizer: dual simplex and barrier
Showing barrier log only...

Root barrier log...

Ordering time: 0.10s

Barrier statistics:
 Dense cols : 360
 AA' NZ     : 1.188e+06
 Factor NZ  : 7.430e+06 (roughly 400 MBytes of memory)
 Factor Ops : 2.001e+09 (less than 1 second per iteration)
 Threads    : 3

                  Objective                Residual
Iter       Primal          Dual         Primal    Dual     Compl     Time
   0   5.21300886e+08 -7.93510343e+08  4.05e+02 3.00e+01  3.30e+04    13s
   1   2.25021128e+06 -8.93757139e+08  3.22e+00 5.14e+03  9.71e+02    13s
   2   1.37145809e+06 -1.21633688e+08  8.24e-01 4.11e+02  1.25e+02    14s
   3   1.24488305e+06 -4.10916469e+06  4.84e-01 1.05e+02  5.57e+00    14s
   4   1.05718782e+06 -4.54595666e+05  1.43e-01 1.69e+01  1.40e+00    15s
   5   9.94574439e+05  3.50899102e+05  1.05e-01 4.94e+00  5.69e-01    15s
   6   9.64752838e+05  5.30222897e+05  8.92e-02 2.70e+00  3.76e-01    16s
   7   9.38824199e+05  6.02409566e+05  7.81e-02 1.78e+00  2.88e-01    16s
   8   9.25775542e+05  6.38700747e+05  7.28e-02 1.34e+00  2.43e-01    17s
   9   9.05325638e+05  6.67143279e+05  6.46e-02 9.54e-01  2.00e-01    17s
  10   8.77063301e+05  6.92797673e+05  5.48e-02 7.97e-01  1.53e-01    18s
  11   8.55948703e+05  7.13161513e+05  4.65e-02 7.56e-01  1.17e-01    18s
  12   8.33177226e+05  7.22744141e+05  3.82e-02 4.89e-01  9.01e-02    19s
  13   8.22555329e+05  7.27621232e+05  3.41e-02 3.33e-01  7.71e-02    19s
  14   8.06888464e+05  7.31027847e+05  2.82e-02 2.21e-01  6.14e-02    20s
  15   7.94452214e+05  7.33479535e+05  2.35e-02 1.50e-01  4.91e-02    20s
  16   7.87303110e+05  7.35047902e+05  2.06e-02 1.32e-01  4.19e-02    21s
  17   7.76726216e+05  7.35789991e+05  1.65e-02 1.06e-01  3.28e-02    21s
  18   7.71157747e+05  7.36429945e+05  1.45e-02 8.84e-02  2.77e-02    22s
  19   7.63905162e+05  7.37168535e+05  1.15e-02 8.02e-02  2.12e-02    22s
  20   7.59583178e+05  7.37644281e+05  9.48e-03 6.07e-02  1.74e-02    23s
  21   7.54750809e+05  7.38049977e+05  7.44e-03 4.49e-02  1.32e-02    23s
  22   7.51380076e+05  7.38398887e+05  5.87e-03 3.24e-02  1.02e-02    24s
  23   7.49019894e+05  7.38662026e+05  4.78e-03 2.40e-02  8.14e-03    24s
  24   7.47474092e+05  7.38833973e+05  3.99e-03 1.87e-02  6.79e-03    25s
  25   7.45712709e+05  7.38938110e+05  3.18e-03 1.58e-02  5.31e-03    25s
  26   7.44896923e+05  7.39144346e+05  2.81e-03 1.10e-02  4.48e-03    26s
  27   7.43795106e+05  7.39219028e+05  2.27e-03 8.91e-03  3.56e-03    26s
  28   7.43098171e+05  7.39338004e+05  1.90e-03 6.21e-03  2.91e-03    27s
  29   7.42160985e+05  7.39386272e+05  1.48e-03 4.98e-03  2.13e-03    27s
  30   7.41725578e+05  7.39418657e+05  1.24e-03 4.20e-03  1.77e-03    28s
  31   7.41333540e+05  7.39456950e+05  1.02e-03 3.25e-03  1.44e-03    28s
  32   7.40917894e+05  7.39486703e+05  7.95e-04 2.57e-03  1.09e-03    28s
  33   7.40690608e+05  7.39500906e+05  6.59e-04 2.26e-03  9.08e-04    29s
  34   7.40430646e+05  7.39526258e+05  5.13e-04 1.72e-03  6.87e-04    29s
  35   7.40284568e+05  7.39538301e+05  4.24e-04 1.47e-03  5.67e-04    30s
  36   7.40129782e+05  7.39555706e+05  3.34e-04 1.12e-03  4.34e-04    30s
  37   7.40072822e+05  7.39570480e+05  3.00e-04 8.64e-04  3.78e-04    31s
  38   7.39925012e+05  7.39579449e+05  2.09e-04 6.93e-04  2.59e-04    31s
  39   7.39876343e+05  7.39591834e+05  1.76e-04 4.96e-04  2.13e-04    32s
  40   7.39839052e+05  7.39600322e+05  1.51e-04 3.55e-04  1.78e-04    32s
  41   7.39792943e+05  7.39605080e+05  1.23e-04 2.62e-04  1.39e-04    33s
  42   7.39757633e+05  7.39608461e+05  9.91e-05 1.99e-04  1.10e-04    33s
  43   7.39740558e+05  7.39610479e+05  8.66e-05 1.64e-04  9.57e-05    34s
  44   7.39712827e+05  7.39612713e+05  6.94e-05 1.26e-04  7.30e-05    34s
  45   7.39686022e+05  7.39614384e+05  4.89e-05 9.90e-05  5.24e-05    35s
  46   7.39663538e+05  7.39616016e+05  3.27e-05 7.45e-05  3.47e-05    35s
  47   7.39655304e+05  7.39617604e+05  2.65e-05 5.18e-05  2.74e-05    36s
  48   7.39648500e+05  7.39619158e+05  2.13e-05 3.31e-05  2.11e-05    36s
  49   7.39642945e+05  7.39619704e+05  1.72e-05 2.54e-05  1.67e-05    37s
  50   7.39639729e+05  7.39620019e+05  1.48e-05 2.18e-05  1.41e-05    37s
  51   7.39636159e+05  7.39620497e+05  1.20e-05 1.54e-05  1.11e-05    38s
  52   7.39634104e+05  7.39620569e+05  1.04e-05 1.45e-05  9.61e-06    38s
  53   7.39631816e+05  7.39621003e+05  8.63e-06 9.77e-06  7.60e-06    39s
  54   7.39629420e+05  7.39621219e+05  6.60e-06 7.41e-06  5.75e-06    39s
  55   7.39627416e+05  7.39621391e+05  4.84e-06 5.18e-06  4.23e-06    40s
  56   7.39626296e+05  7.39621434e+05  3.88e-06 4.65e-06  3.42e-06    40s
  57   7.39625904e+05  7.39621471e+05  3.57e-06 4.19e-06  3.11e-06    40s
  58   7.39625174e+05  7.39621556e+05  2.95e-06 3.37e-06  2.53e-06    41s
  59   7.39623884e+05  7.39621621e+05  1.87e-06 2.65e-06  1.57e-06    41s
  60   7.39623512e+05  7.39621678e+05  1.55e-06 2.04e-06  1.27e-06    42s
  61   7.39623138e+05  7.39621701e+05  1.19e-06 1.80e-06  9.99e-07    42s
  62   7.39622779e+05  7.39621868e+05  8.45e-07 5.61e-07  6.12e-07    43s
  63   7.39622690e+05  7.39621869e+05  7.59e-07 5.29e-07  5.52e-07    43s
  64   7.39622574e+05  7.39621882e+05  6.51e-07 2.96e-07  4.62e-07    44s
  65   7.39622489e+05  7.39621883e+05  5.68e-07 2.63e-07  4.05e-07    44s
  66   7.39622387e+05  7.39621887e+05  4.70e-07 9.80e-08  3.34e-07    44s
  67   7.39622215e+05  7.39621888e+05  3.03e-07 5.99e-08  2.20e-07    45s
  68   7.39622156e+05  7.39621893e+05  2.45e-07 2.73e-07  1.76e-07    45s
  69   7.39622131e+05  7.39621896e+05  2.20e-07 2.53e-07  1.57e-07    46s
  70   7.39622090e+05  7.39621896e+05  1.81e-07 2.20e-07  1.30e-07    46s
  71   7.39622028e+05  7.39621896e+05  1.22e-07 1.98e-07  8.83e-08    47s
  72   7.39622018e+05  7.39621897e+05  1.13e-07 1.85e-07  8.17e-08    47s
  73   7.39621994e+05  7.39621897e+05  8.90e-08 1.59e-07  6.50e-08    47s
  74   7.39621956e+05  7.39621897e+05  5.33e-08 1.80e-07  3.98e-08    48s
  75   7.39621915e+05  7.39621898e+05  2.63e-08 1.03e-07  1.18e-08    48s
  76   7.39621913e+05  7.39621898e+05  6.31e-08 1.02e-07  1.04e-08    49s
  77   7.39621913e+05  7.39621898e+05  6.65e-08 1.01e-07  1.04e-08    49s
  78   7.39621913e+05  7.39621898e+05  6.65e-08 1.02e-07  1.03e-08    50s

Barrier solved model in 78 iterations and 49.79 seconds
Optimal objective 7.39621913e+05


Root crossover log...

   64951 DPushes remaining with DInf 0.0000000e+00                50s
     524 DPushes remaining with DInf 0.0000000e+00                55s
       0 DPushes remaining with DInf 0.0000000e+00                57s

    3525 PPushes remaining with PInf 0.0000000e+00                57s
       0 PPushes remaining with PInf 0.0000000e+00                58s

  Push phase complete: Pinf 0.0000000e+00, Dinf 1.7971473e-09     58s


Root simplex log...

Iteration    Objective       Primal Inf.    Dual Inf.      Time
   17150    7.3962190e+05   0.000000e+00   0.000000e+00     58s

Solved with barrier

Root relaxation: objective 7.396219e+05, 17150 iterations, 47.31 seconds
Total elapsed time = 61.20s

    Nodes    |    Current Node    |     Objective Bounds      |     Work
 Expl Unexpl |  Obj  Depth IntInf | Incumbent    BestBd   Gap | It/Node Time

     0     0 739621.899    0 51759 1021783.00 739621.899  27.6%     -   63s
H    0     0                    815236.00000 739621.899  9.28%     -   67s
     0     0 739624.461    0 51756 815236.000 739624.461  9.27%     -  109s
H    0     0                    814166.00000 739624.461  9.16%     -  194s
     0     0 739624.534    0 51757 814166.000 739624.534  9.16%     -  199s
     0     0 739626.151    0 51754 814166.000 739626.151  9.16%     -  236s
     0     0 739626.200    0 51749 814166.000 739626.200  9.16%     -  245s

Cutting planes:
  Gomory: 4

Explored 1 nodes (23618 simplex iterations) in 300.14 seconds
Thread count was 8 (of 8 available processors)

Solution count 3: 814166 815236 1.02178e+06 

Time limit reached
Best objective 8.141660000000e+05, best bound 7.396261995164e+05, gap 9.1554%

User-callback calls 30650, time in user-callback 0.27 sec
Solution written to /Users/mdeboute/Desktop/Etudes/Master/M2/S9/GOPP/Projet/multi-period-flp/solution/instSingle_I30_J1000_T12_1_result.txt
